n_agents = 7;

% transfered from the photo1.dzn instance from the MZN benchmark
friends = [
{2, 3, 4, 7},
{2, 3, 4},
{3, 4, 7},
{2},
{2, 4, 6},
{5, 7},
{1, 3, 6}
];

enemies = [
{5, 1},
{6, 5},
{5, 7},
{1, 6},
{3},
{3, 5},
{7}
];